(set-option :produce-models true)
(set-logic QF_LRA)
(set-info :notes | Strip-packing problem.|)
(declare-fun x0 () Real)
(declare-fun y0 () Real)
(declare-fun x1 () Real)
(declare-fun y1 () Real)
(declare-fun x2 () Real)
(declare-fun y2 () Real)
(declare-fun x3 () Real)
(declare-fun y3 () Real)
(declare-fun x4 () Real)
(declare-fun y4 () Real)
(declare-fun x5 () Real)
(declare-fun y5 () Real)
(declare-fun x6 () Real)
(declare-fun y6 () Real)
(declare-fun x7 () Real)
(declare-fun y7 () Real)
(declare-fun x8 () Real)
(declare-fun y8 () Real)
(declare-fun x9 () Real)
(declare-fun y9 () Real)
(declare-fun x10 () Real)
(declare-fun y10 () Real)
(declare-fun x11 () Real)
(declare-fun y11 () Real)
(declare-fun x12 () Real)
(declare-fun y12 () Real)
(declare-fun x13 () Real)
(declare-fun y13 () Real)
(declare-fun x14 () Real)
(declare-fun y14 () Real)
(declare-fun z () Real)
(declare-fun c () Real)
(assert (and (= c z) (and (>= x0 0) 
(and (>= y0 0) 
(and (>= x1 0) 
(and (>= y1 0) 
(and (>= x2 0) 
(and (>= y2 0) 
(and (>= x3 0) 
(and (>= y3 0) 
(and (>= x4 0) 
(and (>= y4 0) 
(and (>= x5 0) 
(and (>= y5 0) 
(and (>= x6 0) 
(and (>= y6 0) 
(and (>= x7 0) 
(and (>= y7 0) 
(and (>= x8 0) 
(and (>= y8 0) 
(and (>= x9 0) 
(and (>= y9 0) 
(and (>= x10 0) 
(and (>= y10 0) 
(and (>= x11 0) 
(and (>= y11 0) 
(and (>= x12 0) 
(and (>= y12 0) 
(and (>= x13 0) 
(and (>= y13 0) 
(and (>= x14 0) 
(and (>= y14 0) 
(and (>= z 0) 
(and (>= c 0) 
(and (<= (+ x0 0.6830056092) z) 
(and (<= 0.9162159878 y0) 
(and (<= y0 1.0) 
(and (<= x0 (- 5.3042294409 0.6830056092)) 
(and (>= x0 0) 
(and (<= (+ x1 0.3238947824) z) 
(and (<= 0.8683223486 y1) 
(and (<= y1 1.0) 
(and (<= x1 (- 5.3042294409 0.3238947824)) 
(and (>= x1 0) 
(and (<= (+ x2 0.0410700694) z) 
(and (<= 0.8315323008 y2) 
(and (<= y2 1.0) 
(and (<= x2 (- 5.3042294409 0.0410700694)) 
(and (>= x2 0) 
(and (<= (+ x3 0.3384575808) z) 
(and (<= 0.7319364964 y3) 
(and (<= y3 1.0) 
(and (<= x3 (- 5.3042294409 0.3384575808)) 
(and (>= x3 0) 
(and (<= (+ x4 0.1227577467) z) 
(and (<= 0.6978754066 y4) 
(and (<= y4 1.0) 
(and (<= x4 (- 5.3042294409 0.1227577467)) 
(and (>= x4 0) 
(and (<= (+ x5 0.1387075136) z) 
(and (<= 0.6522831425 y5) 
(and (<= y5 1.0) 
(and (<= x5 (- 5.3042294409 0.1387075136)) 
(and (>= x5 0) 
(and (<= (+ x6 0.5491548659) z) 
(and (<= 0.5633804317 y6) 
(and (<= y6 1.0) 
(and (<= x6 (- 5.3042294409 0.5491548659)) 
(and (>= x6 0) 
(and (<= (+ x7 0.4274920025) z) 
(and (<= 0.5372071793 y7) 
(and (<= y7 1.0) 
(and (<= x7 (- 5.3042294409 0.4274920025)) 
(and (>= x7 0) 
(and (<= (+ x8 0.748815907) z) 
(and (<= 0.5034647828 y8) 
(and (<= y8 1.0) 
(and (<= x8 (- 5.3042294409 0.748815907)) 
(and (>= x8 0) 
(and (<= (+ x9 0.3265446436) z) 
(and (<= 0.3291424593 y9) 
(and (<= y9 1.0) 
(and (<= x9 (- 5.3042294409 0.3265446436)) 
(and (>= x9 0) 
(and (<= (+ x10 0.527334512) z) 
(and (<= 0.327268886 y10) 
(and (<= y10 1.0) 
(and (<= x10 (- 5.3042294409 0.527334512)) 
(and (>= x10 0) 
(and (<= (+ x11 0.1175187465) z) 
(and (<= 0.3079775585 y11) 
(and (<= y11 1.0) 
(and (<= x11 (- 5.3042294409 0.1175187465)) 
(and (>= x11 0) 
(and (<= (+ x12 0.9583655541) z) 
(and (<= 0.232372742 y12) 
(and (<= y12 1.0) 
(and (<= x12 (- 5.3042294409 0.9583655541)) 
(and (>= x12 0) 
(and (<= (+ x13 0.6543575741) z) 
(and (<= 0.1026764684 y13) 
(and (<= y13 1.0) 
(and (<= x13 (- 5.3042294409 0.6543575741)) 
(and (>= x13 0) 
(and (<= (+ x14 0.9725078093) z) 
(and (<= 0.0241693218 y14) 
(and (<= y14 1.0) 
(and (<= x14 (- 5.3042294409 0.9725078093)) 
(and (>= x14 0) 
(and (<= c 5.3042294409) 
(and (or (<= (+ x0 0.6830056092) x1) (or (<= (+ x1 0.3238947824) x0) (or (>= (- y0 0.9162159878) y1) (or (>= (- y1 0.8683223486) y0))))) 
(and (or (<= (+ x0 0.6830056092) x2) (or (<= (+ x2 0.0410700694) x0) (or (>= (- y0 0.9162159878) y2) (or (>= (- y2 0.8315323008) y0))))) 
(and (or (<= (+ x0 0.6830056092) x3) (or (<= (+ x3 0.3384575808) x0) (or (>= (- y0 0.9162159878) y3) (or (>= (- y3 0.7319364964) y0))))) 
(and (or (<= (+ x0 0.6830056092) x4) (or (<= (+ x4 0.1227577467) x0) (or (>= (- y0 0.9162159878) y4) (or (>= (- y4 0.6978754066) y0))))) 
(and (or (<= (+ x0 0.6830056092) x5) (or (<= (+ x5 0.1387075136) x0) (or (>= (- y0 0.9162159878) y5) (or (>= (- y5 0.6522831425) y0))))) 
(and (or (<= (+ x0 0.6830056092) x6) (or (<= (+ x6 0.5491548659) x0) (or (>= (- y0 0.9162159878) y6) (or (>= (- y6 0.5633804317) y0))))) 
(and (or (<= (+ x0 0.6830056092) x7) (or (<= (+ x7 0.4274920025) x0) (or (>= (- y0 0.9162159878) y7) (or (>= (- y7 0.5372071793) y0))))) 
(and (or (<= (+ x0 0.6830056092) x8) (or (<= (+ x8 0.748815907) x0) (or (>= (- y0 0.9162159878) y8) (or (>= (- y8 0.5034647828) y0))))) 
(and (or (<= (+ x0 0.6830056092) x9) (or (<= (+ x9 0.3265446436) x0) (or (>= (- y0 0.9162159878) y9) (or (>= (- y9 0.3291424593) y0))))) 
(and (or (<= (+ x0 0.6830056092) x10) (or (<= (+ x10 0.527334512) x0) (or (>= (- y0 0.9162159878) y10) (or (>= (- y10 0.327268886) y0))))) 
(and (or (<= (+ x0 0.6830056092) x11) (or (<= (+ x11 0.1175187465) x0) (or (>= (- y0 0.9162159878) y11) (or (>= (- y11 0.3079775585) y0))))) 
(and (or (<= (+ x0 0.6830056092) x12) (or (<= (+ x12 0.9583655541) x0) (or (>= (- y0 0.9162159878) y12) (or (>= (- y12 0.232372742) y0))))) 
(and (or (<= (+ x0 0.6830056092) x13) (or (<= (+ x13 0.6543575741) x0) (or (>= (- y0 0.9162159878) y13) (or (>= (- y13 0.1026764684) y0))))) 
(and (or (<= (+ x0 0.6830056092) x14) (or (<= (+ x14 0.9725078093) x0) (or (>= (- y0 0.9162159878) y14) (or (>= (- y14 0.0241693218) y0))))) 
(and (or (<= (+ x1 0.3238947824) x2) (or (<= (+ x2 0.0410700694) x1) (or (>= (- y1 0.8683223486) y2) (or (>= (- y2 0.8315323008) y1))))) 
(and (or (<= (+ x1 0.3238947824) x3) (or (<= (+ x3 0.3384575808) x1) (or (>= (- y1 0.8683223486) y3) (or (>= (- y3 0.7319364964) y1))))) 
(and (or (<= (+ x1 0.3238947824) x4) (or (<= (+ x4 0.1227577467) x1) (or (>= (- y1 0.8683223486) y4) (or (>= (- y4 0.6978754066) y1))))) 
(and (or (<= (+ x1 0.3238947824) x5) (or (<= (+ x5 0.1387075136) x1) (or (>= (- y1 0.8683223486) y5) (or (>= (- y5 0.6522831425) y1))))) 
(and (or (<= (+ x1 0.3238947824) x6) (or (<= (+ x6 0.5491548659) x1) (or (>= (- y1 0.8683223486) y6) (or (>= (- y6 0.5633804317) y1))))) 
(and (or (<= (+ x1 0.3238947824) x7) (or (<= (+ x7 0.4274920025) x1) (or (>= (- y1 0.8683223486) y7) (or (>= (- y7 0.5372071793) y1))))) 
(and (or (<= (+ x1 0.3238947824) x8) (or (<= (+ x8 0.748815907) x1) (or (>= (- y1 0.8683223486) y8) (or (>= (- y8 0.5034647828) y1))))) 
(and (or (<= (+ x1 0.3238947824) x9) (or (<= (+ x9 0.3265446436) x1) (or (>= (- y1 0.8683223486) y9) (or (>= (- y9 0.3291424593) y1))))) 
(and (or (<= (+ x1 0.3238947824) x10) (or (<= (+ x10 0.527334512) x1) (or (>= (- y1 0.8683223486) y10) (or (>= (- y10 0.327268886) y1))))) 
(and (or (<= (+ x1 0.3238947824) x11) (or (<= (+ x11 0.1175187465) x1) (or (>= (- y1 0.8683223486) y11) (or (>= (- y11 0.3079775585) y1))))) 
(and (or (<= (+ x1 0.3238947824) x12) (or (<= (+ x12 0.9583655541) x1) (or (>= (- y1 0.8683223486) y12) (or (>= (- y12 0.232372742) y1))))) 
(and (or (<= (+ x1 0.3238947824) x13) (or (<= (+ x13 0.6543575741) x1) (or (>= (- y1 0.8683223486) y13) (or (>= (- y13 0.1026764684) y1))))) 
(and (or (<= (+ x1 0.3238947824) x14) (or (<= (+ x14 0.9725078093) x1) (or (>= (- y1 0.8683223486) y14) (or (>= (- y14 0.0241693218) y1))))) 
(and (or (<= (+ x2 0.0410700694) x3) (or (<= (+ x3 0.3384575808) x2) (or (>= (- y2 0.8315323008) y3) (or (>= (- y3 0.7319364964) y2))))) 
(and (or (<= (+ x2 0.0410700694) x4) (or (<= (+ x4 0.1227577467) x2) (or (>= (- y2 0.8315323008) y4) (or (>= (- y4 0.6978754066) y2))))) 
(and (or (<= (+ x2 0.0410700694) x5) (or (<= (+ x5 0.1387075136) x2) (or (>= (- y2 0.8315323008) y5) (or (>= (- y5 0.6522831425) y2))))) 
(and (or (<= (+ x2 0.0410700694) x6) (or (<= (+ x6 0.5491548659) x2) (or (>= (- y2 0.8315323008) y6) (or (>= (- y6 0.5633804317) y2))))) 
(and (or (<= (+ x2 0.0410700694) x7) (or (<= (+ x7 0.4274920025) x2) (or (>= (- y2 0.8315323008) y7) (or (>= (- y7 0.5372071793) y2))))) 
(and (or (<= (+ x2 0.0410700694) x8) (or (<= (+ x8 0.748815907) x2) (or (>= (- y2 0.8315323008) y8) (or (>= (- y8 0.5034647828) y2))))) 
(and (or (<= (+ x2 0.0410700694) x9) (or (<= (+ x9 0.3265446436) x2) (or (>= (- y2 0.8315323008) y9) (or (>= (- y9 0.3291424593) y2))))) 
(and (or (<= (+ x2 0.0410700694) x10) (or (<= (+ x10 0.527334512) x2) (or (>= (- y2 0.8315323008) y10) (or (>= (- y10 0.327268886) y2))))) 
(and (or (<= (+ x2 0.0410700694) x11) (or (<= (+ x11 0.1175187465) x2) (or (>= (- y2 0.8315323008) y11) (or (>= (- y11 0.3079775585) y2))))) 
(and (or (<= (+ x2 0.0410700694) x12) (or (<= (+ x12 0.9583655541) x2) (or (>= (- y2 0.8315323008) y12) (or (>= (- y12 0.232372742) y2))))) 
(and (or (<= (+ x2 0.0410700694) x13) (or (<= (+ x13 0.6543575741) x2) (or (>= (- y2 0.8315323008) y13) (or (>= (- y13 0.1026764684) y2))))) 
(and (or (<= (+ x2 0.0410700694) x14) (or (<= (+ x14 0.9725078093) x2) (or (>= (- y2 0.8315323008) y14) (or (>= (- y14 0.0241693218) y2))))) 
(and (or (<= (+ x3 0.3384575808) x4) (or (<= (+ x4 0.1227577467) x3) (or (>= (- y3 0.7319364964) y4) (or (>= (- y4 0.6978754066) y3))))) 
(and (or (<= (+ x3 0.3384575808) x5) (or (<= (+ x5 0.1387075136) x3) (or (>= (- y3 0.7319364964) y5) (or (>= (- y5 0.6522831425) y3))))) 
(and (or (<= (+ x3 0.3384575808) x6) (or (<= (+ x6 0.5491548659) x3) (or (>= (- y3 0.7319364964) y6) (or (>= (- y6 0.5633804317) y3))))) 
(and (or (<= (+ x3 0.3384575808) x7) (or (<= (+ x7 0.4274920025) x3) (or (>= (- y3 0.7319364964) y7) (or (>= (- y7 0.5372071793) y3))))) 
(and (or (<= (+ x3 0.3384575808) x8) (or (<= (+ x8 0.748815907) x3) (or (>= (- y3 0.7319364964) y8) (or (>= (- y8 0.5034647828) y3))))) 
(and (or (<= (+ x3 0.3384575808) x9) (or (<= (+ x9 0.3265446436) x3) (or (>= (- y3 0.7319364964) y9) (or (>= (- y9 0.3291424593) y3))))) 
(and (or (<= (+ x3 0.3384575808) x10) (or (<= (+ x10 0.527334512) x3) (or (>= (- y3 0.7319364964) y10) (or (>= (- y10 0.327268886) y3))))) 
(and (or (<= (+ x3 0.3384575808) x11) (or (<= (+ x11 0.1175187465) x3) (or (>= (- y3 0.7319364964) y11) (or (>= (- y11 0.3079775585) y3))))) 
(and (or (<= (+ x3 0.3384575808) x12) (or (<= (+ x12 0.9583655541) x3) (or (>= (- y3 0.7319364964) y12) (or (>= (- y12 0.232372742) y3))))) 
(and (or (<= (+ x3 0.3384575808) x13) (or (<= (+ x13 0.6543575741) x3) (or (>= (- y3 0.7319364964) y13) (or (>= (- y13 0.1026764684) y3))))) 
(and (or (<= (+ x3 0.3384575808) x14) (or (<= (+ x14 0.9725078093) x3) (or (>= (- y3 0.7319364964) y14) (or (>= (- y14 0.0241693218) y3))))) 
(and (or (<= (+ x4 0.1227577467) x5) (or (<= (+ x5 0.1387075136) x4) (or (>= (- y4 0.6978754066) y5) (or (>= (- y5 0.6522831425) y4))))) 
(and (or (<= (+ x4 0.1227577467) x6) (or (<= (+ x6 0.5491548659) x4) (or (>= (- y4 0.6978754066) y6) (or (>= (- y6 0.5633804317) y4))))) 
(and (or (<= (+ x4 0.1227577467) x7) (or (<= (+ x7 0.4274920025) x4) (or (>= (- y4 0.6978754066) y7) (or (>= (- y7 0.5372071793) y4))))) 
(and (or (<= (+ x4 0.1227577467) x8) (or (<= (+ x8 0.748815907) x4) (or (>= (- y4 0.6978754066) y8) (or (>= (- y8 0.5034647828) y4))))) 
(and (or (<= (+ x4 0.1227577467) x9) (or (<= (+ x9 0.3265446436) x4) (or (>= (- y4 0.6978754066) y9) (or (>= (- y9 0.3291424593) y4))))) 
(and (or (<= (+ x4 0.1227577467) x10) (or (<= (+ x10 0.527334512) x4) (or (>= (- y4 0.6978754066) y10) (or (>= (- y10 0.327268886) y4))))) 
(and (or (<= (+ x4 0.1227577467) x11) (or (<= (+ x11 0.1175187465) x4) (or (>= (- y4 0.6978754066) y11) (or (>= (- y11 0.3079775585) y4))))) 
(and (or (<= (+ x4 0.1227577467) x12) (or (<= (+ x12 0.9583655541) x4) (or (>= (- y4 0.6978754066) y12) (or (>= (- y12 0.232372742) y4))))) 
(and (or (<= (+ x4 0.1227577467) x13) (or (<= (+ x13 0.6543575741) x4) (or (>= (- y4 0.6978754066) y13) (or (>= (- y13 0.1026764684) y4))))) 
(and (or (<= (+ x4 0.1227577467) x14) (or (<= (+ x14 0.9725078093) x4) (or (>= (- y4 0.6978754066) y14) (or (>= (- y14 0.0241693218) y4))))) 
(and (or (<= (+ x5 0.1387075136) x6) (or (<= (+ x6 0.5491548659) x5) (or (>= (- y5 0.6522831425) y6) (or (>= (- y6 0.5633804317) y5))))) 
(and (or (<= (+ x5 0.1387075136) x7) (or (<= (+ x7 0.4274920025) x5) (or (>= (- y5 0.6522831425) y7) (or (>= (- y7 0.5372071793) y5))))) 
(and (or (<= (+ x5 0.1387075136) x8) (or (<= (+ x8 0.748815907) x5) (or (>= (- y5 0.6522831425) y8) (or (>= (- y8 0.5034647828) y5))))) 
(and (or (<= (+ x5 0.1387075136) x9) (or (<= (+ x9 0.3265446436) x5) (or (>= (- y5 0.6522831425) y9) (or (>= (- y9 0.3291424593) y5))))) 
(and (or (<= (+ x5 0.1387075136) x10) (or (<= (+ x10 0.527334512) x5) (or (>= (- y5 0.6522831425) y10) (or (>= (- y10 0.327268886) y5))))) 
(and (or (<= (+ x5 0.1387075136) x11) (or (<= (+ x11 0.1175187465) x5) (or (>= (- y5 0.6522831425) y11) (or (>= (- y11 0.3079775585) y5))))) 
(and (or (<= (+ x5 0.1387075136) x12) (or (<= (+ x12 0.9583655541) x5) (or (>= (- y5 0.6522831425) y12) (or (>= (- y12 0.232372742) y5))))) 
(and (or (<= (+ x5 0.1387075136) x13) (or (<= (+ x13 0.6543575741) x5) (or (>= (- y5 0.6522831425) y13) (or (>= (- y13 0.1026764684) y5))))) 
(and (or (<= (+ x5 0.1387075136) x14) (or (<= (+ x14 0.9725078093) x5) (or (>= (- y5 0.6522831425) y14) (or (>= (- y14 0.0241693218) y5))))) 
(and (or (<= (+ x6 0.5491548659) x7) (or (<= (+ x7 0.4274920025) x6) (or (>= (- y6 0.5633804317) y7) (or (>= (- y7 0.5372071793) y6))))) 
(and (or (<= (+ x6 0.5491548659) x8) (or (<= (+ x8 0.748815907) x6) (or (>= (- y6 0.5633804317) y8) (or (>= (- y8 0.5034647828) y6))))) 
(and (or (<= (+ x6 0.5491548659) x9) (or (<= (+ x9 0.3265446436) x6) (or (>= (- y6 0.5633804317) y9) (or (>= (- y9 0.3291424593) y6))))) 
(and (or (<= (+ x6 0.5491548659) x10) (or (<= (+ x10 0.527334512) x6) (or (>= (- y6 0.5633804317) y10) (or (>= (- y10 0.327268886) y6))))) 
(and (or (<= (+ x6 0.5491548659) x11) (or (<= (+ x11 0.1175187465) x6) (or (>= (- y6 0.5633804317) y11) (or (>= (- y11 0.3079775585) y6))))) 
(and (or (<= (+ x6 0.5491548659) x12) (or (<= (+ x12 0.9583655541) x6) (or (>= (- y6 0.5633804317) y12) (or (>= (- y12 0.232372742) y6))))) 
(and (or (<= (+ x6 0.5491548659) x13) (or (<= (+ x13 0.6543575741) x6) (or (>= (- y6 0.5633804317) y13) (or (>= (- y13 0.1026764684) y6))))) 
(and (or (<= (+ x6 0.5491548659) x14) (or (<= (+ x14 0.9725078093) x6) (or (>= (- y6 0.5633804317) y14) (or (>= (- y14 0.0241693218) y6))))) 
(and (or (<= (+ x7 0.4274920025) x8) (or (<= (+ x8 0.748815907) x7) (or (>= (- y7 0.5372071793) y8) (or (>= (- y8 0.5034647828) y7))))) 
(and (or (<= (+ x7 0.4274920025) x9) (or (<= (+ x9 0.3265446436) x7) (or (>= (- y7 0.5372071793) y9) (or (>= (- y9 0.3291424593) y7))))) 
(and (or (<= (+ x7 0.4274920025) x10) (or (<= (+ x10 0.527334512) x7) (or (>= (- y7 0.5372071793) y10) (or (>= (- y10 0.327268886) y7))))) 
(and (or (<= (+ x7 0.4274920025) x11) (or (<= (+ x11 0.1175187465) x7) (or (>= (- y7 0.5372071793) y11) (or (>= (- y11 0.3079775585) y7))))) 
(and (or (<= (+ x7 0.4274920025) x12) (or (<= (+ x12 0.9583655541) x7) (or (>= (- y7 0.5372071793) y12) (or (>= (- y12 0.232372742) y7))))) 
(and (or (<= (+ x7 0.4274920025) x13) (or (<= (+ x13 0.6543575741) x7) (or (>= (- y7 0.5372071793) y13) (or (>= (- y13 0.1026764684) y7))))) 
(and (or (<= (+ x7 0.4274920025) x14) (or (<= (+ x14 0.9725078093) x7) (or (>= (- y7 0.5372071793) y14) (or (>= (- y14 0.0241693218) y7))))) 
(and (or (<= (+ x8 0.748815907) x9) (or (<= (+ x9 0.3265446436) x8) (or (>= (- y8 0.5034647828) y9) (or (>= (- y9 0.3291424593) y8))))) 
(and (or (<= (+ x8 0.748815907) x10) (or (<= (+ x10 0.527334512) x8) (or (>= (- y8 0.5034647828) y10) (or (>= (- y10 0.327268886) y8))))) 
(and (or (<= (+ x8 0.748815907) x11) (or (<= (+ x11 0.1175187465) x8) (or (>= (- y8 0.5034647828) y11) (or (>= (- y11 0.3079775585) y8))))) 
(and (or (<= (+ x8 0.748815907) x12) (or (<= (+ x12 0.9583655541) x8) (or (>= (- y8 0.5034647828) y12) (or (>= (- y12 0.232372742) y8))))) 
(and (or (<= (+ x8 0.748815907) x13) (or (<= (+ x13 0.6543575741) x8) (or (>= (- y8 0.5034647828) y13) (or (>= (- y13 0.1026764684) y8))))) 
(and (or (<= (+ x8 0.748815907) x14) (or (<= (+ x14 0.9725078093) x8) (or (>= (- y8 0.5034647828) y14) (or (>= (- y14 0.0241693218) y8))))) 
(and (or (<= (+ x9 0.3265446436) x10) (or (<= (+ x10 0.527334512) x9) (or (>= (- y9 0.3291424593) y10) (or (>= (- y10 0.327268886) y9))))) 
(and (or (<= (+ x9 0.3265446436) x11) (or (<= (+ x11 0.1175187465) x9) (or (>= (- y9 0.3291424593) y11) (or (>= (- y11 0.3079775585) y9))))) 
(and (or (<= (+ x9 0.3265446436) x12) (or (<= (+ x12 0.9583655541) x9) (or (>= (- y9 0.3291424593) y12) (or (>= (- y12 0.232372742) y9))))) 
(and (or (<= (+ x9 0.3265446436) x13) (or (<= (+ x13 0.6543575741) x9) (or (>= (- y9 0.3291424593) y13) (or (>= (- y13 0.1026764684) y9))))) 
(and (or (<= (+ x9 0.3265446436) x14) (or (<= (+ x14 0.9725078093) x9) (or (>= (- y9 0.3291424593) y14) (or (>= (- y14 0.0241693218) y9))))) 
(and (or (<= (+ x10 0.527334512) x11) (or (<= (+ x11 0.1175187465) x10) (or (>= (- y10 0.327268886) y11) (or (>= (- y11 0.3079775585) y10))))) 
(and (or (<= (+ x10 0.527334512) x12) (or (<= (+ x12 0.9583655541) x10) (or (>= (- y10 0.327268886) y12) (or (>= (- y12 0.232372742) y10))))) 
(and (or (<= (+ x10 0.527334512) x13) (or (<= (+ x13 0.6543575741) x10) (or (>= (- y10 0.327268886) y13) (or (>= (- y13 0.1026764684) y10))))) 
(and (or (<= (+ x10 0.527334512) x14) (or (<= (+ x14 0.9725078093) x10) (or (>= (- y10 0.327268886) y14) (or (>= (- y14 0.0241693218) y10))))) 
(and (or (<= (+ x11 0.1175187465) x12) (or (<= (+ x12 0.9583655541) x11) (or (>= (- y11 0.3079775585) y12) (or (>= (- y12 0.232372742) y11))))) 
(and (or (<= (+ x11 0.1175187465) x13) (or (<= (+ x13 0.6543575741) x11) (or (>= (- y11 0.3079775585) y13) (or (>= (- y13 0.1026764684) y11))))) 
(and (or (<= (+ x11 0.1175187465) x14) (or (<= (+ x14 0.9725078093) x11) (or (>= (- y11 0.3079775585) y14) (or (>= (- y14 0.0241693218) y11))))) 
(and (or (<= (+ x12 0.9583655541) x13) (or (<= (+ x13 0.6543575741) x12) (or (>= (- y12 0.232372742) y13) (or (>= (- y13 0.1026764684) y12))))) 
(and (or (<= (+ x12 0.9583655541) x14) (or (<= (+ x14 0.9725078093) x12) (or (>= (- y12 0.232372742) y14) (or (>= (- y14 0.0241693218) y12))))) 
(and (or (<= (+ x13 0.6543575741) x14) (or (<= (+ x14 0.9725078093) x13) (or (>= (- y13 0.1026764684) y14) (or (>= (- y14 0.0241693218) y13))))) )))))))))))))))))))))))))))))))))))))))))))))))))))))))))))))))))))))))))))))))))))))))))))))))))))))))))))))))))))))))))))))))))))))))))))))))))))))))))))))))))))))))))))))))))))))))))))))))))))))))))))))))))))))))
(minimize c)
(check-sat)
(get-objectives)
(exit)
